200
1000
626
622
621
619
614
612
609
608
608
605
600
595
575
572
571
571
567
564
563
554
552
551
549
548
544
542
542
538
538
535
533
529
527
524
524
515
510
510
509
504
502
501
496
490
488
481
480
478
475
470
469
468
458
454
451
446
446
442
438
436
432
430
422
414
413
412
411
408
397
389
386
386
385
383
382
373
372
372
371
369
366
364
362
361
360
360
356
354
351
348
343
338
334
331
326
325
323
322
320
320
320
320
317
317
316
308
308
305
301
300
299
298
297
295
295
289
287
285
285
282
281
279
279
266
259
257
257
254
250
250
249
248
244
243
237
236
225
223
222
219
216
215
210
209
199
199
196
189
186
185
184
183
182
182
181
176
169
169
168
168
167
158
156
155
141
141
136
135
132
131
131
131
125
121
118
116
116
115
107
96
95
93
93
88
84
84
78
78
75
72
65
62
62
60
53
51
43
43
36
35
